100
120
93
93
92
90
88
88
88
86
86
85
84
84
82
82
82
82
82
82
80
80
77
75
72
72
71
70
70
70
68
68
66
66
64
64
61
61
61
61
61
58
56
56
56
54
53
53
52
51
51
51
49
49
48
48
48
47
46
44
44
43
42
42
41
41
40
39
38
37
37
36
36
35
35
34
34
34
33
33
31
30
29
28
26
26
26
26
23
19
18
18
18
16
16
15
15
15
15
13
13
12
